c ---- [ banner ] ------------------------------------------------------------
c
c Kissat SAT Solver
c 
c Copyright (c) 2021-2024 Armin Biere University of Freiburg
c Copyright (c) 2019-2021 Armin Biere Johannes Kepler University Linz
c 
c Version 4.0.1 43f02cf3e992cb44653b35e5cb26f93281552ae0
c gcc (Ubuntu 13.2.0-23ubuntu4) 13.2.0 -W -Wall -O3 -DNDEBUG
c Thu Sep 12 12:27:46 CEST 2024 Linux abryzen9 6.8.0-41-generic x86_64
c
c ---- [ parsing ] -----------------------------------------------------------
c
c opened and reading DIMACS file:
c
c   /data/artifact/AMulet2.0_artifact/exp4/cnf_sopb_64/64_64_U_SP_DT_KS_GenMul_sopb.cnf
c
c parsed 'p cnf 28591 128580' header
c closing input after reading 2584918 bytes (2 MB)
c finished parsing after 0.02 seconds
c
c ---- [ options ] -----------------------------------------------------------
c
c --stable=0                       (different from default '1')
c
c ---- [ solving ] -----------------------------------------------------------
c
c  seconds switched rate     size/glue tier1  binary           remaining
c         MB reductions conflicts size  tier2     irredundant
c          level restarts redundant glue  trail           variables
c
c *  0.02 10 0 0 0  0 0   0   0 0.0 0 0 0 0 0% 12290 116288 28588 100%
c (  0.04 12 0 0 0  0 0   0   0 0.0 0 0 0 0 0% 12290 116288 28588 100%
c .  0.04 12 0 0 0  0 0   0   0 0.0 0 0 0 0 0% 12286 116288 28588 100%
c c  0.11 17 0 0 0  0 0   0   0 0.0 0 0 0 0 0% 16490 107924 26497 93%
c d  0.11 17 0 0 0  0 0   0   0 0.0 0 0 0 0 0% 12308 107924 26497 93%
c =  0.17 17 0 0 0  0 0   0   0 0.0 0 0 0 0 0% 12386 107922 26458 93%
c d  0.17 17 0 0 0  0 0   0   0 0.0 0 0 0 0 0% 12308 107922 26458 93%
c f  0.31 16 0 0 0  0 0   0   0 0.0 0 0 0 0 0% 17664 99390 29516 103%
c e  0.52 23 0 0 0  0 0   0   0 0.0 0 0 0 0 0% 11013 108310 20448 72%
c )  0.52 23 0 0 0  0 0   0   0 0.0 0 0 0 0 0% 11013 108310 20448 72%
c {  0.53 23 0 0 0  0 0   0   0 0.0 0 0 2 6 0% 11013 108310 20448 72%
c -  0.81 24 149 0 1 313 44 1000 708 4.1 21 5 2 8 17% 11075 108310 20448 72%
c -  1.28 24 179 0 2 512 47 2000 1386 4.3 32 7 3 12 24% 11107 108310 20448 72%
c c  1.44 22 210 0 2 533 44 2505 1815 4.4 31 7 3 11 24% 11137 108217 20428 71%
c d  1.44 22 210 0 2 533 44 2505 1798 4.4 31 7 3 11 24% 11097 108217 20428 71%
c u  1.47 22 210 0 2 533 44 2505 1501 4.4 31 7 3 11 24% 11107 108217 20428 71%
c v  1.50 22 210 0 2 533 44 2505 1268 4.4 31 7 3 11 24% 11107 108217 20428 71%
c w  1.52 23 210 0 2 533 44 2505 1268 4.4 31 7 3 11 24% 11107 108217 20428 71%
c x  1.54 23 210 0 2 533 44 2505 1268 4.4 31 7 3 11 24% 11107 108151 20428 71%
c =  1.65 23 210 0 2 533 44 2505 1268 4.4 31 7 3 11 24% 11197 108151 20383 71%
c
c  seconds   switched   rate       size/glue tier1     binary           remaining
c         MB  reductions conflicts       size  tier2       irredundant
c           level restarts    redundant    glue    trail           variables
c
c d  1.65 23 210 0 2 533 44 2505 1268 4.4 31 7 3 11 24% 11104 108151 20383 71%
c t  1.67 23 210 0 2 533 44 2505 1268 4.4 31 7 3 11 24% 11089 108151 20383 71%
c f  1.71 23 210 0 2 533 44 2505 1268 4.4 31 7 3 11 24% 12624 105370 21447 75%
c u  1.75 23 210 0 2 533 44 2505 1226 4.4 31 7 3 11 24% 12628 105370 21447 75%
c v  1.78 23 210 0 2 533 44 2505 1170 4.4 31 7 3 11 24% 12628 105370 21447 75%
c w  1.82 23 210 0 2 533 44 2505 1168 4.4 31 7 3 11 24% 12628 105370 21447 75%
c x  1.85 23 210 0 2 533 44 2505 1168 4.4 31 7 3 11 24% 12628 105346 21447 75%
c =  1.95 23 210 0 2 533 44 2505 1168 4.4 31 7 3 11 24% 12818 105346 21352 75%
c d  1.96 23 210 0 2 533 44 2505 1167 4.4 31 7 3 11 24% 12581 105346 21352 75%
c f  2.02 23 210 0 2 533 44 2505 1167 4.4 31 7 3 11 24% 12950 104783 21540 75%
c -  2.24 24 234 0 3 589 39 3414 1635 4.3 30 7 3 12 24% 12995 104783 21540 75%
c -  2.82 24 257 0 4 776 38 5146 2683 4.5 31 7 3 11 25% 13044 104783 21540 75%
c -  3.20 24 310 0 5 921 35 7146 3803 4.4 29 7 2 10 23% 13078 104783 21540 75%
c c  3.44 24 306 0 5 984 35 7711 4204 4.4 29 7 2 10 23% 13122 104635 21505 75%
c d  3.45 24 306 0 5 984 35 7711 4189 4.4 29 7 2 10 23% 13043 104635 21500 75%
c u  3.48 24 306 0 5 984 35 7711 3777 4.4 29 7 2 10 23% 13065 104635 21500 75%
c v  3.53 24 306 0 5 984 35 7711 3132 4.4 29 7 2 10 23% 13066 104635 21500 75%
c w  3.59 24 306 0 5 984 35 7711 3122 4.4 29 7 2 10 23% 13066 104635 21500 75%
c =  3.71 24 306 0 5 984 35 7711 3122 4.4 29 7 2 10 23% 13702 104635 21182 74%
c d  3.72 24 306 0 5 984 35 7711 3097 4.4 29 7 2 10 23% 12916 104635 21181 74%
c
c  seconds   switched   rate       size/glue tier1     binary           remaining
c         MB  reductions conflicts       size  tier2       irredundant
c           level restarts    redundant    glue    trail           variables
c
c t  3.74 24 306 0 5 984 35 7711 3097 4.4 29 7 2 10 23% 12891 104635 21181 74%
c f  3.79 24 306 0 5 984 35 7711 3097 4.4 29 7 2 10 23% 13773 103310 21622 76%
c u  3.89 24 306 0 5 984 35 7711 3017 4.4 29 7 2 10 23% 13775 103310 21622 76%
c v  3.92 24 306 0 5 984 35 7711 2898 4.4 29 7 2 10 23% 13775 103310 21622 76%
c w  3.97 24 306 0 5 984 35 7711 2895 4.4 29 7 2 10 23% 13775 103310 21622 76%
c x  4.00 24 306 0 5 984 35 7711 2895 4.4 29 7 2 10 23% 13775 103094 21622 76%
c =  4.13 24 306 0 5 984 35 7711 2895 4.4 29 7 2 10 23% 14349 103094 21335 75%
c d  4.14 24 306 0 5 984 35 7711 2891 4.4 29 7 2 10 23% 13617 103094 21335 75%
c t  4.15 24 306 0 5 984 35 7711 2891 4.4 29 7 2 10 23% 13571 103094 21335 75%
c f  4.20 24 306 0 5 984 35 7711 2891 4.4 29 7 2 10 23% 15755 99814 22428 78%
c -  4.57 24 324 0 6 1091 34 9382 3808 4.4 29 7 2 10 22% 15802 99814 22428 78%
c o  4.91 24 318 0 6 1179 36 10001 4380 4.5 32 7 2 10 23% 15808 99814 22428 78%
c -  5.67 24 306 0 7 1394 36 11831 5218 4.8 36 7 2 9 24% 15835 99814 22428 78%
c s  5.88 24 302 0 7 1421 35 12513 5787 4.8 35 7 2 9 24% 15856 97575 22428 78%
c e  6.03 24 302 0 7 1421 35 12513 5787 4.8 35 7 2 9 24% 14983 98175 21605 76%
c s  6.03 24 302 0 7 1421 35 12513 5787 4.8 35 7 2 9 24% 15003 97678 21605 76%
c e  6.05 24 302 0 7 1421 35 12513 5787 4.8 35 7 2 9 24% 14825 97835 21521 75%
c ^  6.05 24 302 0 7 1421 35 12513 5787 4.8 35 7 2 9 24% 14825 97835 21521 75%
c -  6.77 24 295 0 8 1601 34 14476 6083 4.7 35 8 2 9 25% 14878 97835 21521 75%
c d  7.26 24 295 0 8 1752 34 15792 7187 4.7 36 8 2 9 25% 14540 97835 21303 75%
c
c  seconds   switched    rate        size/glue tier1    binary          remaining
c         MB  reductions   conflicts       size  tier2      irredundant
c           level  restarts     redundant    glue   trail          variables
c
c u  7.31 24 295 0 8 1752 34 15792 6405 4.7 36 8 2 9 25% 14550 97835 21303 75%
c v  7.38 24 295 0 8 1752 34 15792 5447 4.7 36 8 2 9 25% 14550 97835 21303 75%
c w  7.49 24 295 0 8 1752 34 15792 5442 4.7 36 8 2 9 25% 14550 97835 21303 75%
c x  7.54 24 295 0 8 1752 34 15792 5442 4.7 36 8 2 9 25% 14552 97653 21303 75%
c =  7.82 24 295 0 8 1752 34 15792 5442 4.7 36 8 2 9 25% 15424 97653 20867 73%
c d  7.83 24 295 0 8 1752 34 15792 5368 4.7 36 8 2 9 25% 14472 97653 20866 73%
c t  7.86 24 295 0 8 1752 34 15792 5368 4.7 36 8 2 9 25% 14386 97653 20866 73%
c f  7.94 24 295 0 8 1752 34 15792 5368 4.7 36 8 2 9 25% 14497 97330 20965 73%
c u  8.06 24 295 0 8 1752 34 15792 5159 4.7 36 8 2 9 25% 14499 97330 20965 73%
c v  8.11 24 295 0 8 1752 34 15792 5036 4.7 36 8 2 9 25% 14499 97330 20965 73%
c w  8.23 24 295 0 8 1752 34 15792 5012 4.7 36 8 2 9 25% 14499 97330 20965 73%
c x  8.28 24 295 0 8 1752 34 15792 5012 4.7 36 8 2 9 25% 14499 95819 20965 73%
c =  8.56 24 295 0 8 1752 34 15792 5012 4.7 36 8 2 9 25% 17367 95819 19531 68%
c d  8.58 24 295 0 8 1752 34 15792 4944 4.7 36 8 2 9 25% 13190 95819 19531 68%
c t  8.60 24 295 0 8 1752 34 15792 4944 4.7 36 8 2 9 25% 13183 95819 19531 68%
c f  8.65 24 295 0 8 1752 34 15792 4944 4.7 36 8 2 9 25% 13189 95807 19534 68%
c -  9.10 24 289 0 9 1856 33 17304 5490 4.6 35 8 2 9 26% 13216 95807 19534 68%
c o  9.73 24 303 0 9 2050 33 20013 7789 4.5 34 8 2 9 26% 13260 95807 19534 68%
c -  9.88 24 301 0 10 2088 33 20304 7072 4.5 34 8 2 9 26% 13261 95807 19534 68%
c - 10.90 24 295 0 11 2349 32 23466 8576 4.4 34 8 2 9 27% 13321 95807 19534 68%
c
c  seconds   switched     rate        size/glue tier1    binary          remaining
c         MB   reductions   conflicts       size  tier2      irredundant
c           level   restarts     redundant    glue   trail          variables
c
c s 11.25 24 301 0 11 2470 32 25020 9902 4.4 34 8 2 9 26% 13373 91528 19534 68%
c e 11.33 24 301 0 11 2470 32 25020 9902 4.4 34 8 2 9 26% 10479 94900 17917 63%
c s 11.34 24 301 0 11 2470 32 25020 9902 4.4 34 8 2 9 26% 10493 94491 17917 63%
c e 11.35 24 301 0 11 2470 32 25020 9902 4.4 34 8 2 9 26% 10403 94597 17878 63%
c ^ 11.35 24 301 0 11 2470 32 25020 9902 4.4 34 8 2 9 26% 10403 94597 17878 63%
c - 11.60 24 294 0 12 2537 31 26783 9017 4.3 33 8 2 9 26% 10443 94597 17878 63%
c d 11.63 24 294 0 12 2544 31 26920 9123 4.3 33 8 2 9 26% 10239 94593 17756 62%
c u 11.67 24 294 0 12 2544 31 26920 8052 4.3 33 8 2 9 26% 10254 94593 17756 62%
c v 11.71 24 294 0 12 2544 31 26920 7049 4.3 33 8 2 9 26% 10255 94593 17756 62%
c w 11.73 24 294 0 12 2544 31 26920 7049 4.3 33 8 2 9 26% 10255 94593 17756 62%
c x 11.80 24 294 0 12 2544 31 26920 7049 4.3 33 8 2 9 26% 10257 93397 17756 62%
c = 12.01 24 294 0 12 2544 31 26920 7049 4.3 33 8 2 9 26% 12647 93393 16561 58%
c d 12.02 24 294 0 12 2544 31 26920 6790 4.3 33 8 2 9 26% 10133 93393 16561 58%
c t 12.03 24 294 0 12 2544 31 26920 6790 4.3 33 8 2 9 26% 10127 93393 16561 58%
c f 12.09 24 294 0 12 2544 31 26920 6790 4.3 33 8 2 9 26% 10218 93111 16618 58%
c u 12.13 24 294 0 12 2544 31 26920 6451 4.3 33 8 2 9 26% 10222 93111 16618 58%
c v 12.15 24 294 0 12 2544 31 26920 6305 4.3 33 8 2 9 26% 10222 93111 16618 58%
c w 12.17 24 294 0 12 2544 31 26920 6304 4.3 33 8 2 9 26% 10222 93111 16618 58%
c x 12.26 24 294 0 12 2544 31 26920 6303 4.3 33 8 2 9 26% 10223 88144 16618 58%
c = 12.44 24 294 0 12 2544 31 26920 6303 4.3 33 8 2 9 26% 11249 88144 16105 56%
c
c  seconds   switched     rate        size/glue tier1    binary          remaining
c         MB   reductions   conflicts       size  tier2      irredundant
c           level   restarts     redundant    glue   trail          variables
c
c d 12.44 24 294 0 12 2544 31 26920 6295 4.3 33 8 2 9 26% 10210 88144 16105 56%
c f 12.50 24 294 0 12 2544 31 26920 6295 4.3 33 8 2 9 26% 10214 88134 16107 56%
c - 13.14 24 290 0 13 2728 30 30248 8266 4.2 32 8 2 8 26% 10251 88134 16107 56%
c - 14.26 24 281 0 14 3088 30 33853 10216 4.2 32 8 2 8 27% 10295 88134 16107 56%
c - 14.90 24 276 0 15 3287 29 37594 11851 4.1 31 8 2 8 26% 10367 88132 16107 56%
c o 15.72 24 271 0 15 3550 29 40048 14001 4.1 31 8 2 8 26% 10411 88132 16107 56%
c c 16.10 24 268 0 15 3643 29 41246 15077 4.1 31 8 2 8 26% 10512 87552 16007 56%
c d 16.11 24 268 0 15 3643 29 41246 14824 4.1 31 8 2 8 26% 10312 87552 16007 56%
c u 16.19 24 268 0 15 3643 29 41246 12653 4.1 31 8 2 8 26% 10332 87552 16007 56%
c v 16.30 24 268 0 15 3643 29 41246 11147 4.1 31 8 2 8 26% 10340 87552 16007 56%
c w 16.36 24 268 0 15 3643 29 41246 11147 4.1 31 8 2 8 26% 10340 87552 16007 56%
c x 16.46 24 268 0 15 3643 29 41246 11147 4.1 31 8 2 8 26% 10340 83371 16007 56%
c = 16.67 24 268 0 15 3643 29 41246 11147 4.1 31 8 2 8 26% 10440 83371 15957 56%
c d 16.68 24 268 0 15 3643 29 41246 11108 4.1 31 8 2 8 26% 10317 83371 15949 56%
c t 16.69 24 268 0 15 3643 29 41246 11108 4.1 31 8 2 8 26% 10307 83371 15949 56%
c f 16.71 24 268 0 15 3643 29 41246 11108 4.1 31 8 2 8 26% 10309 83366 15950 56%
c u 16.75 24 268 0 15 3643 29 41246 10704 4.1 31 8 2 8 26% 10312 83366 15950 56%
c v 16.79 24 268 0 15 3643 29 41246 10411 4.1 31 8 2 8 26% 10312 83366 15950 56%
c w 16.89 24 268 0 15 3643 29 41246 10405 4.1 31 8 2 8 26% 10312 83366 15950 56%
c x 16.95 24 268 0 15 3643 29 41246 10405 4.1 31 8 2 8 26% 10312 82632 15950 56%
c
c  seconds   switched     rate         size/glue tier1    binary          remaining
c         MB   reductions   conflicts        size  tier2      irredundant
c           level   restarts      redundant    glue   trail          variables
c
c = 17.21 24 268 0 15 3643 29 41246 10405 4.1 31 8 2 8 26% 11034 82632 15589 55%
c d 17.22 24 268 0 15 3643 29 41246 10300 4.1 31 8 2 8 26% 10292 82632 15589 55%
c f 17.27 24 268 0 15 3643 29 41246 10300 4.1 31 8 2 8 26% 10294 82625 15590 55%
c - 17.32 24 268 0 16 3660 29 41466 9221 4.1 31 8 2 7 26% 10294 82625 15590 55%
c - 18.15 24 259 0 17 3976 28 45466 11222 4.0 30 8 2 7 26% 10359 82625 15590 55%
c - 19.05 24 254 0 18 4301 28 49591 13071 3.9 30 8 2 7 26% 10413 82625 15590 55%
c s 19.79 24 250 0 18 4541 28 52122 15395 3.9 30 8 2 7 26% 10428 78603 15590 55%
c e 19.90 24 250 0 18 4541 28 52122 15395 3.9 30 8 2 7 26% 9646 80080 15005 52%
c s 19.91 24 250 0 18 4541 28 52122 15395 3.9 30 8 2 7 26% 9655 79814 15005 52%
c e 19.92 24 250 0 18 4541 28 52122 15395 3.9 30 8 2 7 26% 9647 79827 15001 52%
c ^ 19.92 24 250 0 18 4541 28 52122 15395 3.9 30 8 2 7 26% 9647 79827 15001 52%
c - 20.55 24 245 0 19 4780 28 53833 13866 3.8 30 8 2 7 26% 9656 79827 15001 52%
c - 21.40 24 246 0 20 5082 27 58191 15607 3.8 29 8 2 7 26% 9709 79827 15001 52%
c c 21.65 24 245 0 20 5156 27 58875 16169 3.8 29 8 2 7 26% 9838 79284 14924 52%
c d 21.66 24 245 0 20 5156 27 58875 16040 3.8 29 8 2 7 26% 9684 79284 14924 52%
c u 21.76 24 245 0 20 5156 27 58875 13700 3.8 29 8 2 7 26% 9724 79284 14924 52%
c v 21.85 24 245 0 20 5156 27 58875 12220 3.8 29 8 2 7 26% 9725 79284 14924 52%
c w 21.94 24 245 0 20 5156 27 58875 12206 3.8 29 8 2 7 26% 9725 79284 14924 52%
c x 22.05 24 245 0 20 5156 27 58875 12203 3.8 29 8 2 7 26% 9728 78415 14924 52%
c = 22.47 24 245 0 20 5156 27 58875 12203 3.8 29 8 2 7 26% 11648 78412 13964 49%
c
c  seconds   switched     rate         size/glue tier1    binary         remaining
c         MB   reductions   conflicts        size  tier2     irredundant
c           level   restarts      redundant    glue   trail         variables
c
c d 22.48 24 245 0 20 5156 27 58875 11658 3.8 29 8 2 7 26% 9614 78412 13964 49%
c t 22.50 24 245 0 20 5156 27 58875 11658 3.8 29 8 2 7 26% 9593 78412 13964 49%
c f 22.56 24 245 0 20 5156 27 58875 11658 3.8 29 8 2 7 26% 9602 78368 13971 49%
c u 22.70 24 245 0 20 5156 27 58875 10859 3.8 29 8 2 7 26% 9605 78368 13971 49%
c v 22.76 24 245 0 20 5156 27 58875 10546 3.8 29 8 2 7 26% 9605 78368 13971 49%
c w 22.84 24 245 0 20 5156 27 58875 10526 3.8 29 8 2 7 26% 9605 78368 13971 49%
c x 23.01 24 245 0 20 5156 27 58875 10523 3.8 29 8 2 7 26% 9605 71883 13971 49%
c = 23.21 24 245 0 20 5156 27 58875 10523 3.8 29 8 2 7 26% 9639 71883 13954 49%
c d 23.22 24 245 0 20 5156 27 58875 10521 3.8 29 8 2 7 26% 9600 71883 13953 49%
c - 24.23 24 238 0 21 5546 27 62663 12334 3.7 29 8 2 7 26% 9628 71883 13953 49%
c - 25.13 24 238 0 22 5876 26 67252 14636 3.7 29 8 2 7 26% 9680 71883 13953 49%
c o 25.43 24 238 0 22 5986 26 70248 17094 3.6 28 8 2 7 26% 9713 71883 13953 49%
c - 25.94 24 236 0 23 6170 26 71944 16476 3.7 28 8 2 7 26% 9726 71883 13953 49%
c - 26.98 24 233 0 24 6567 26 76739 18091 3.6 28 8 2 6 26% 9824 71883 13953 49%
c d 27.89 24 230 0 24 6930 26 79956 20685 3.6 28 8 2 6 26% 9663 71883 13860 48%
c u 28.01 24 230 0 24 6930 26 79956 17355 3.6 28 8 2 6 26% 9703 71883 13860 48%
c v 28.13 24 230 0 24 6930 26 79956 15574 3.6 28 8 2 6 26% 9709 71883 13860 48%
c w 28.22 24 230 0 24 6930 26 79956 15574 3.6 28 8 2 6 26% 9709 71883 13860 48%
c x 28.33 24 230 0 24 6930 26 79956 15574 3.6 28 8 2 6 26% 9709 71742 13860 48%
c = 28.80 24 230 0 24 6930 26 79956 15574 3.6 28 8 2 6 26% 10581 71736 13424 47%
c
c  seconds   switched     rate         size/glue tier1    binary         remaining
c         MB   reductions   conflicts        size  tier2     irredundant
c           level   restarts      redundant    glue   trail         variables
c
c d 28.81 24 230 0 24 6930 26 79956 14884 3.6 28 8 2 6 26% 9599 71736 13423 47%
c t 28.83 24 230 0 24 6930 26 79956 14884 3.6 28 8 2 6 26% 9585 71736 13423 47%
c c 28.92 24 230 0 24 6930 26 79956 14884 3.6 28 8 2 6 26% 9602 71648 13413 47%
c d 28.93 24 230 0 24 6930 26 79956 14859 3.6 28 8 2 6 26% 9582 71648 13413 47%
c u 29.03 24 230 0 24 6930 26 79956 13912 3.6 28 8 2 6 26% 9586 71648 13413 47%
c v 29.09 24 230 0 24 6930 26 79956 13498 3.6 28 8 2 6 26% 9588 71648 13413 47%
c w 29.41 24 230 0 24 6930 26 79956 13433 3.6 28 8 2 6 26% 9588 71648 13413 47%
c = 29.88 24 230 0 24 6930 26 79956 13433 3.6 28 8 2 6 26% 9768 71646 13323 47%
c d 29.89 24 230 0 24 6930 26 79956 13387 3.6 28 8 2 6 26% 9582 71646 13323 47%
c t 29.91 24 230 0 24 6930 26 79956 13387 3.6 28 8 2 6 26% 9581 71646 13323 47%
c - 30.48 24 228 0 25 7182 26 81638 13196 3.6 28 8 2 6 26% 9586 71644 13323 47%
c - 31.37 24 227 0 26 7493 25 86638 15824 3.5 27 8 2 6 26% 9602 71638 13323 47%
c - 33.23 24 224 0 27 8232 25 91737 16663 3.6 28 8 1 6 27% 9616 71637 13323 47%
c s 34.60 24 220 0 27 8817 26 95791 20509 3.6 29 8 1 6 27% 9622 68118 13323 47%
c e 34.73 24 220 0 27 8817 26 95791 20509 3.6 29 8 1 6 27% 6795 75262 11820 41%
c 2 34.73 24 220 0 27 8817 26 95791 20509 3.6 29 8 1 6 27% 6791 75262 11820 41%
c s 34.75 24 220 0 27 8817 26 95791 20509 3.6 29 8 1 6 27% 6793 74974 11820 41%
c e 34.77 24 220 0 27 8817 26 95791 20509 3.6 29 8 1 6 27% 6775 75032 11801 41%
c ^ 34.77 24 220 0 27 8817 26 95791 20509 3.6 29 8 1 6 27% 6775 75032 11801 41%
c - 35.03 24 219 0 28 8931 25 96933 14493 3.6 29 8 1 6 28% 6783 75029 11801 41%
c
c  seconds   switched     rate          size/glue tier1    binary         remaining
c         MB   reductions   conflicts         size  tier2     irredundant
c           level   restarts       redundant    glue   trail         variables
c
c - 36.39 24 212 0 29 9541 25 102224 16374 3.5 29 8 1 6 28% 6817 75026 11801 41%
c d 36.96 24 211 0 29 9767 25 104594 18398 3.5 29 8 1 6 28% 6793 75026 11787 41%
c u 37.03 24 211 0 29 9767 25 104594 16104 3.5 29 8 1 6 28% 6801 75026 11787 41%
c v 37.16 24 211 0 29 9767 25 104594 13411 3.5 29 8 1 6 28% 6807 75026 11787 41%
c w 37.43 24 211 0 29 9767 25 104594 13367 3.5 29 8 1 6 28% 6807 75026 11787 41%
c x 37.57 24 211 0 29 9767 25 104594 13366 3.5 29 8 1 6 28% 6807 74968 11787 41%
c = 38.26 24 211 0 29 9767 25 104594 13366 3.5 29 8 1 6 28% 6839 74925 11770 41%
c d 38.27 24 211 0 29 9767 25 104594 13350 3.5 29 8 1 6 28% 6803 74925 11770 41%
c t 38.29 24 211 0 29 9767 25 104594 13350 3.5 29 8 1 6 28% 6784 74925 11770 41%
c f 38.37 24 211 0 29 9767 25 104594 13350 3.5 29 8 1 6 28% 6782 74917 11771 41%
c u 38.44 24 211 0 29 9767 25 104594 12691 3.5 29 8 1 6 28% 6783 74917 11771 41%
c v 38.52 24 211 0 29 9767 25 104594 11953 3.5 29 8 1 6 28% 6785 74917 11771 41%
c w 38.79 24 211 0 29 9767 25 104594 11807 3.5 29 8 1 6 28% 6785 74917 11771 41%
c t 39.49 24 211 0 29 9767 25 104594 11807 3.5 29 8 1 6 28% 6783 74917 11771 41%
c - 40.50 24 209 0 30 10153 25 107609 12366 3.5 29 8 1 6 28% 6787 74917 11771 41%
c o 41.21 24 208 0 30 10405 25 110285 14821 3.5 29 8 1 6 28% 6793 74917 11771 41%
c - 41.71 24 207 0 31 10577 25 113089 14785 3.5 29 8 1 6 28% 6801 74917 11771 41%
c - 42.91 24 203 0 32 10983 24 118656 16802 3.5 29 9 1 6 28% 6815 74917 11771 41%
c - 44.32 24 200 0 33 11508 24 124313 18490 3.4 30 9 1 6 28% 6823 74917 11771 41%
c i 45.34 24 197 0 33 11852 24 128492 22361 3.4 30 9 1 6 28% 6836 74917 11770 41%
c
c  seconds   switched      rate          size/glue tier1    binary         remaining
c         MB   reductions    conflicts         size  tier2     irredundant
c           level   restarts        redundant    glue   trail         variables
c
c - 45.75 24 197 0 34 11983 24 130057 19696 3.4 30 9 1 6 28% 6835 74917 11770 41%
c i 45.99 24 196 0 34 12165 24 131676 21191 3.4 30 9 1 6 29% 6842 74917 11769 41%
c i 46.07 24 196 0 34 12224 24 132235 21688 3.4 30 9 1 6 29% 6848 74917 11768 41%
c c 46.27 24 196 0 34 12292 24 132859 22265 3.4 30 9 1 6 29% 6848 74885 11765 41%
c d 46.27 24 196 0 34 12292 24 132859 22125 3.4 30 9 1 6 29% 6852 74875 11765 41%
c d 46.27 24 196 0 34 12292 24 132859 22123 3.4 30 9 1 6 29% 6842 74875 11760 41%
c u 46.33 24 196 0 34 12292 24 132859 19705 3.4 30 9 1 6 29% 6871 74875 11759 41%
c v 46.42 24 196 0 34 12292 24 132859 16488 3.4 30 9 1 6 29% 6876 74875 11758 41%
c w 46.56 24 196 0 34 12292 24 132859 16441 3.4 30 9 1 6 29% 6876 74875 11758 41%
c t 46.57 24 196 0 34 12292 24 132859 16407 3.4 30 9 1 6 29% 6859 74856 11758 41%
c d 46.58 24 196 0 34 12292 24 132859 16407 3.4 30 9 1 6 29% 6855 74856 11756 41%
c u 46.61 24 196 0 34 12292 24 132859 15554 3.4 30 9 1 6 29% 6871 74856 11755 41%
c v 46.64 24 196 0 34 12292 24 132859 14727 3.4 30 9 1 6 29% 6875 74856 11755 41%
c w 46.74 24 196 0 34 12292 24 132859 14539 3.4 30 9 1 6 29% 6875 74856 11755 41%
c x 46.80 24 196 0 34 12292 24 132859 14527 3.4 30 9 1 6 29% 6881 74529 11755 41%
c d 47.20 24 196 0 34 12292 24 132859 14522 3.4 30 9 1 6 29% 6881 74529 11754 41%
c t 47.20 24 196 0 34 12292 24 132859 14522 3.4 30 9 1 6 29% 6867 74529 11754 41%
c i 47.21 24 196 0 34 12292 24 132859 14522 3.4 30 9 1 6 29% 6867 74529 11754 41%
c - 47.60 24 194 0 35 12576 24 135888 14724 3.4 30 9 1 6 29% 6847 74527 11754 41%
c - 48.15 24 192 0 36 13007 23 141804 17311 3.3 30 9 1 5 29% 6860 74526 11754 41%
c
c  seconds   switched      rate          size/glue tier1    binary         remaining
c         MB   reductions    conflicts         size  tier2     irredundant
c           level   restarts        redundant    glue   trail         variables
c
c i 48.23 24 191 0 36 13060 23 143176 18586 3.3 30 9 1 5 29% 6866 74526 11753 41%
c - 48.82 24 188 0 37 13560 23 147804 19379 3.3 30 9 1 5 29% 6867 74526 11753 41%
c i 49.13 24 186 0 37 13792 23 150854 22224 3.3 30 9 1 5 29% 6870 74526 11752 41%
c i 49.14 24 186 0 37 13798 23 150917 22263 3.3 30 9 1 5 29% 6873 74526 11751 41%
c i 49.21 24 186 0 37 13862 23 151563 22868 3.3 30 9 1 5 29% 6876 74526 11750 41%
c i 49.35 24 185 0 37 13964 22 152760 24008 3.3 30 9 1 5 29% 6881 74526 11749 41%
c i 49.44 24 185 0 37 14042 22 153564 24738 3.3 30 9 1 5 29% 6885 74526 11748 41%
c i 49.44 24 185 0 37 14042 22 153566 24738 3.3 30 9 1 5 29% 6886 74526 11747 41%
c i 49.44 24 185 0 37 14042 22 153644 24784 3.3 30 9 1 5 29% 6892 74526 11746 41%
c - 49.46 24 184 0 38 14063 22 153889 20669 3.3 30 9 1 5 29% 6870 74526 11746 41%
c i 49.49 24 184 0 38 14078 22 154216 20960 3.3 30 9 1 5 29% 6874 74526 11745 41%
c i 49.58 24 183 0 38 14161 22 155035 21735 3.3 30 9 1 5 29% 6876 74526 11744 41%
c s 49.88 24 181 0 38 14362 22 157901 24462 3.2 30 9 1 5 29% 6879 74303 11744 41%
c e 49.97 24 181 0 38 14362 22 157901 24462 3.2 30 9 1 5 29% 4040 86400 10180 36%
c 2 49.97 24 181 0 38 14362 22 157901 24462 3.2 30 9 1 5 29% 4037 86400 10180 36%
c s 49.99 24 181 0 38 14362 22 157901 24462 3.2 30 9 1 5 29% 4041 85683 10180 36%
c e 50.02 24 181 0 38 14362 22 157901 24462 3.2 30 9 1 5 29% 3986 85996 10127 35%
c ^ 50.02 24 181 0 38 14362 22 157901 24462 3.2 30 9 1 5 29% 3986 85996 10127 35%
c - 50.54 24 179 0 39 14556 22 160054 16472 3.2 29 9 1 5 29% 3988 85996 10127 35%
c o 50.57 24 179 0 39 14574 22 160315 16715 3.2 29 9 1 5 29% 3989 85995 10127 35%
c
c  seconds   switched      rate          size/glue tier1    binary         remaining
c         MB   reductions    conflicts         size  tier2     irredundant
c           level   restarts        redundant    glue   trail         variables
c
c i 50.60 24 179 0 39 14590 22 160585 16947 3.2 29 9 1 5 29% 3993 85993 10126 35%
c i 50.96 24 176 0 39 14812 22 163724 19817 3.2 29 9 1 5 29% 4016 85991 10125 35%
c u 51.23 25 175 0 39 14934 22 164858 18680 3.2 29 9 1 5 29% 4035 85959 10125 35%
c v 51.31 25 175 0 39 14934 22 164858 15568 3.2 29 9 1 5 29% 4033 85959 10125 35%
c w 51.60 25 175 0 39 14934 22 164858 15252 3.2 29 9 1 5 29% 4033 85959 10125 35%
c t 51.61 25 175 0 39 14934 22 164858 15252 3.2 29 9 1 5 29% 4012 85959 10125 35%
c f 51.68 25 175 0 39 14934 22 164858 15252 3.2 29 9 1 5 29% 4043 85148 10162 36%
c u 51.71 25 175 0 39 14934 22 164858 14644 3.2 29 9 1 5 29% 4047 85148 10162 36%
c v 51.74 25 175 0 39 14934 22 164858 13990 3.2 29 9 1 5 29% 4048 85148 10162 36%
c w 51.87 25 175 0 39 14934 22 164858 13655 3.2 29 9 1 5 29% 4048 85148 10162 36%
c x 51.93 25 175 0 39 14934 22 164858 13644 3.2 29 9 1 5 29% 4049 84077 10162 36%
c t 51.94 25 175 0 39 14934 22 164858 13644 3.2 29 9 1 5 29% 4048 84077 10162 36%
c - 52.05 25 174 0 40 15013 21 166298 12426 3.2 29 9 1 6 29% 4037 84076 10162 36%
c i 52.15 25 172 0 40 15088 21 167843 13841 3.1 29 9 1 6 29% 4043 84073 10161 36%
c - 52.56 25 169 0 41 15454 21 172622 15111 3.1 28 9 1 6 29% 4042 84072 10161 36%
c i 52.67 25 168 0 41 15553 21 174088 16511 3.1 28 9 1 6 29% 4044 84072 10160 36%
c i 52.78 25 168 0 41 15676 21 175078 17433 3.1 28 9 1 6 29% 4049 84072 10157 36%
c i 52.83 25 168 0 41 15698 21 175539 17849 3.1 28 9 1 6 29% 4052 84072 10156 36%
c i 52.85 25 167 0 41 15719 21 175974 18249 3.1 28 9 1 6 29% 4054 84072 10155 36%
c - 53.06 25 165 0 42 15901 20 179025 17309 3.0 28 9 1 6 29% 4032 84071 10155 36%
c
c  seconds   switched      rate          size/glue tier1    binary         remaining
c         MB   reductions    conflicts         size  tier2     irredundant
c           level   restarts        redundant    glue   trail         variables
c
c i 53.11 25 165 0 42 15932 20 179491 17753 3.0 28 9 1 6 29% 4033 84070 10154 36%
c i 54.03 25 161 0 42 16308 20 185054 22977 3.0 27 9 1 6 29% 4044 84068 10150 36%
c - 54.05 25 161 0 43 16315 20 185505 18710 3.0 27 9 1 6 29% 4040 84067 10150 36%
c i 54.06 25 160 0 43 16315 20 185732 18857 3.0 27 9 1 6 28% 4046 84063 10149 35%
c i 54.61 25 158 0 43 16536 19 188907 21792 2.9 27 9 1 6 29% 4050 84059 10146 35%
c i 54.67 25 158 0 43 16574 19 189249 22099 2.9 27 9 1 6 29% 4053 84058 10144 35%
c - 55.02 25 157 0 44 16750 19 192062 19686 2.9 27 9 1 6 29% 4046 84058 10144 35%
c i 55.03 25 156 0 44 16750 19 192116 19733 2.9 27 9 1 6 29% 4048 84058 10143 35%
c i 55.07 25 156 0 44 16778 19 192883 20419 2.9 27 9 1 6 29% 4053 84057 10140 35%
c i 55.15 25 155 0 44 16808 19 194094 21531 2.9 27 9 1 6 28% 4054 84057 10139 35%
c i 55.33 25 153 0 44 16940 19 196624 23816 2.9 26 9 1 6 28% 4063 84055 10138 35%
c i 55.33 25 153 0 44 16944 19 196664 23845 2.9 26 9 1 6 28% 4067 84055 10137 35%
c i 55.36 25 153 0 44 16960 19 197149 24284 2.9 26 9 1 6 28% 4068 84055 10136 35%
c i 55.38 25 152 0 44 16964 18 197846 24866 2.9 26 9 1 6 28% 4073 84054 10135 35%
c - 55.40 25 151 0 45 16976 18 198695 19963 2.9 26 9 1 6 28% 4045 84054 10135 35%
c c 55.52 25 149 0 45 17049 18 200657 21742 2.8 26 9 1 6 27% 4051 83730 10132 35%
c d 55.52 25 149 0 45 17049 18 200657 21742 2.8 26 9 1 6 27% 4067 83708 10132 35%
c d 55.52 25 149 0 45 17049 18 200657 21738 2.8 26 9 1 6 27% 4045 83708 10121 35%
c u 55.58 25 149 0 45 17049 18 200657 19379 2.8 26 9 1 6 27% 4071 83708 10117 35%
c v 55.69 25 149 0 45 17049 18 200657 15467 2.8 26 9 1 6 27% 4092 83708 10117 35%
c
c  seconds   switched      rate          size/glue tier1    binary         remaining
c         MB   reductions    conflicts         size  tier2     irredundant
c           level   restarts        redundant    glue   trail         variables
c
c w 55.72 25 149 0 45 17049 18 200657 15418 2.8 26 9 1 6 27% 4092 83708 10117 35%
c x 55.80 25 149 0 45 17049 18 200657 15418 2.8 26 9 1 6 27% 4101 83663 10117 35%
c = 56.27 25 149 0 45 17049 18 200657 15418 2.8 26 9 1 6 27% 4169 83565 10081 35%
c d 56.28 25 149 0 45 17049 18 200657 15386 2.8 26 9 1 6 27% 4082 83565 10081 35%
c t 56.29 25 149 0 45 17049 18 200657 15386 2.8 26 9 1 6 27% 4041 83565 10081 35%
c u 56.36 25 149 0 45 17049 18 200657 14781 2.8 26 9 1 6 27% 4051 83565 10080 35%
c v 56.42 25 149 0 45 17049 18 200657 13886 2.8 26 9 1 6 27% 4052 83565 10080 35%
c w 56.46 25 149 0 45 17049 18 200657 13722 2.8 26 9 1 6 27% 4052 83565 10080 35%
c t 56.47 25 149 0 45 17049 18 200657 13719 2.8 26 9 1 6 27% 4049 83542 10080 35%
c i 56.48 25 149 0 45 17049 18 200657 13719 2.8 26 9 1 6 27% 4049 83542 10080 35%
c i 56.48 25 149 0 45 17049 18 200665 13722 2.8 26 9 1 6 27% 4051 83542 10079 35%
c i 56.49 25 149 0 45 17056 18 201156 14141 2.8 26 9 1 6 27% 4057 83542 10078 35%
c i 56.49 25 148 0 45 17056 18 201257 14204 2.8 26 9 1 6 27% 4062 83540 10077 35%
c i 56.49 25 148 0 45 17056 18 201424 14321 2.8 26 9 1 6 27% 4070 83540 10068 35%
c i 56.49 25 148 0 45 17056 18 201432 14324 2.8 26 9 1 6 27% 4071 83540 10067 35%
c i 56.49 25 148 0 45 17056 18 201435 14324 2.8 26 9 1 6 27% 4073 83540 10064 35%
c } 56.49 25 148 0 45 17056 18 201449 14327 2.8 26 9 1 6 27% 4076 83539 10054 35%
c 0 56.49 25 148 0 45 17056 18 201449 14327 2.8 26 9 1 6 27% 4076 83539 10054 35%
c
c ---- [ result ] ------------------------------------------------------------
c
s UNSATISFIABLE
c
c ---- [ profiling ] ---------------------------------------------------------
c
c          41.06   72.68 %  search
c          41.06   72.68 %  focused
c          14.90   26.38 %  simplify
c          14.32   25.35 %  probe
c           6.09   10.79 %  vivify
c           5.73   10.14 %  sweep
c           0.94    1.66 %  factor
c           0.85    1.50 %  eliminate
c           0.65    1.16 %  substitute
c           0.65    1.15 %  congruence
c           0.48    0.85 %  preprocess
c           0.28    0.49 %  reduce
c           0.21    0.37 %  fastel
c           0.17    0.31 %  transitive
c           0.16    0.28 %  subsume
c           0.08    0.15 %  backbone
c           0.03    0.05 %  lucky
c           0.02    0.04 %  parse
c =============================================
c          56.49  100.00 %  total
c
c ---- [ statistics ] --------------------------------------------------------
c
c chronological:                         6006                3 %  conflicts
c conflicts:                           201449             3566.01 per second
c congruent:                             2339                8 %  variables
c decisions:                          4069268               20.20 per conflict
c eliminated:                           15359               54 %  variables
c factored:                              6052               21 %  variables
c fast_eliminated:                       9068               59 %  eliminated
c fast_strengthened:                      318               14 %  per strengthened
c fast_subsumed:                           64                0 %  per subsumed
c iterations:                              39                0 %  variables
c propagations:                     177938895          3149839    per second
c reductions:                              45             4477    interval
c reordered:                                6            33575    interval
c restarts:                             17056               12    interval
c strengthened:                          2308                0 %  checks
c substituted:                           9148               32 %  variables
c subsumed:                             16387                0 %  checks
c switched:                                 0                0    interval
c vivified:                             91250               14 %  checks
c
c ---- [ glue usage ] --------------------------------------------------------
c
c focused glue 1   used 324167 clauses 59.04% accumulated 59.04% tier1
c focused glue 2   used  99256 clauses 18.08% accumulated 77.12%
c focused glue 3-4 used  54627 clauses  9.95% accumulated 87.07%
c focused glue 5   used  13378 clauses  2.44% accumulated 89.51%
c focused glue 6   used   9969 clauses  1.82% accumulated 91.32% tier2
c
c ---- [ resources ] ---------------------------------------------------------
c
c maximum-resident-set-size:         26521600 bytes         25 MB
c process-time:                            56s              56.49 seconds
c
c ---- [ shutting down ] -----------------------------------------------------
c
c exit 20
